CPXPARAM_MIP_Cuts_Disjunctive#P15#0#CPXPARAM_MIP_Strategy_VariableSelect#P46#0#2.505156#0.400604
CPXPARAM_MIP_Cuts_Disjunctive#P15#0#CPXPARAM_MIP_Strategy_VariableSelect#P46#1#2.446100#0.391160
CPXPARAM_MIP_Cuts_Disjunctive#P15#3#CPXPARAM_MIP_Strategy_VariableSelect#P46#0#6.253446#1.000000
CPXPARAM_MIP_Cuts_Disjunctive#P15#3#CPXPARAM_MIP_Strategy_VariableSelect#P46#1#6.233818#0.996861
